GLPSOL--GLPK LP/MIP Solver 5.0
Parameter(s) specified in the command line:
 --lp ../modeles/10_94.lp --log 10_94.log
Reading problem data from '../modeles/10_94.lp'...
981 rows, 1900 columns, 6610 non-zeros
940 integer variables, all of which are binary
2897 lines were read
GLPK Integer Optimizer 5.0
981 rows, 1900 columns, 6610 non-zeros
940 integer variables, all of which are binary
Preprocessing...
940 constraint coefficient(s) were reduced
981 rows, 1890 columns, 6600 non-zeros
940 integer variables, all of which are binary
Scaling...
 A: min|aij| =  1.811e-03  max|aij| =  4.000e+00  ratio =  2.209e+03
GM: min|aij| =  1.459e-01  max|aij| =  6.856e+00  ratio =  4.700e+01
EQ: min|aij| =  2.128e-02  max|aij| =  1.000e+00  ratio =  4.700e+01
2N: min|aij| =  1.449e-02  max|aij| =  1.704e+00  ratio =  1.177e+02
Constructing initial basis...
Size of triangular part is 981
Solving LP relaxation...
GLPK Simplex Optimizer 5.0
981 rows, 1890 columns, 6600 non-zeros
      0: obj =   2.000000000e+01 inf =   4.950e+01 (21)
    129: obj =  -1.451393610e-01 inf =   0.000e+00 (0)
*   398: obj =  -3.155319149e+00 inf =   3.067e-15 (0)
OPTIMAL LP SOLUTION FOUND
Integer optimization begins...
Long-step dual simplex will be used
+   398: mip =     not found yet >=              -inf        (1; 0)
+   448: >>>>>  -3.155319149e+00 >=  -3.155319149e+00 < 0.1% (50; 0)
+   448: mip =  -3.155319149e+00 >=     tree is empty   0.0% (0; 99)
INTEGER OPTIMAL SOLUTION FOUND
Time used:   0.1 secs
Memory used: 2.9 Mb (3053730 bytes)
